set VV := 0 1 2 3 4 5 6 7 8 9 10 11 12 13 14 15 16 17 18 19 20 ;
set VS := 0 1 2 3 4 5 6 7 8 9 10 11 12 13 14 15 16 17 18 19 20 21 22 23 24 25 26 27 28 29 30 31 32 33 34 35 36 37 38 39 40 41 42 43 44 45 46 ;
param cv := 
0 12
1 19
2 24
3 20
4 14
5 17
6 11
7 10
8 11
9 16
10 19
11 10
12 11
13 10
14 19
15 20
16 15
17 13
18 24
19 10
20 25
;
param cs := 
0 39
1 31
2 27
3 22
4 28
5 28
6 27
7 34
8 31
9 39
10 36
11 27
12 27
13 23
14 30
15 21
16 29
17 36
18 25
19 31
20 26
21 21
22 25
23 39
24 38
25 38
26 32
27 40
28 40
29 31
30 21
31 32
32 23
33 38
34 29
35 22
36 31
37 32
38 27
39 38
40 34
41 26
42 25
43 35
44 29
45 35
46 30
;
param bv:	 0 1 2 3 4 5 6 7 8 9 10 11 12 13 14 15 16 17 18 19 20 := 
		0 0 0 0 0 10 18 19 20 0 0 0 0 0 0 0 0 0 22 21 0 0 
		1 0 0 0 0 0 23 0 0 0 0 0 0 0 0 25 0 0 0 0 0 0 
		2 0 0 0 0 0 0 0 0 0 21 10 0 0 0 0 24 0 13 0 0 24 
		3 0 0 0 0 0 0 0 0 19 24 23 0 0 0 0 0 0 0 0 0 0 
		4 0 0 0 0 0 0 0 0 0 0 0 0 0 0 0 0 0 21 0 0 0 
		5 0 0 0 0 0 0 24 0 0 0 0 0 0 0 0 16 13 0 0 0 0 
		6 0 0 0 0 0 0 0 0 0 0 0 0 0 0 0 0 0 0 0 0 0 
		7 0 0 0 0 0 0 0 0 0 10 0 11 0 21 0 0 0 0 0 0 0 
		8 0 0 0 0 0 0 0 0 0 0 0 0 0 15 0 0 0 0 0 0 0 
		9 0 0 0 0 0 0 0 0 0 0 0 0 17 0 0 0 0 0 0 0 0 
		10 0 0 0 0 0 0 0 0 0 0 0 0 0 0 0 0 0 0 0 0 0 
		11 0 0 0 0 0 0 0 0 0 0 0 0 0 0 18 0 0 0 0 15 0 
		12 0 0 0 0 0 0 0 0 0 0 0 0 0 0 0 0 0 0 0 0 18 
		13 0 0 0 0 0 0 0 0 0 0 0 0 0 0 0 10 0 0 0 10 0 
		14 0 0 0 0 0 0 0 0 0 0 0 0 0 0 0 0 0 0 0 0 25 
		15 0 0 0 0 0 0 0 0 0 0 0 0 0 0 0 0 0 0 0 0 0 
		16 0 0 0 0 0 0 0 0 0 0 0 0 0 0 0 0 0 0 16 0 13 
		17 0 0 0 0 0 0 0 0 0 0 0 0 0 0 0 0 0 0 0 0 0 
		18 0 0 0 0 0 0 0 0 0 0 0 0 0 0 0 0 0 0 0 0 0 
		19 0 0 0 0 0 0 0 0 0 0 0 0 0 0 0 0 0 0 0 0 14 
		20 0 0 0 0 0 0 0 0 0 0 0 0 0 0 0 0 0 0 0 0 0 
;
param bs:	 0 1 2 3 4 5 6 7 8 9 10 11 12 13 14 15 16 17 18 19 20 21 22 23 24 25 26 27 28 29 30 31 32 33 34 35 36 37 38 39 40 41 42 43 44 45 46 := 
		0 0 0 0 0 0 0 0 0 0 0 0 0 0 32 0 0 0 0 0 0 0 0 0 0 0 27 0 0 0 0 0 0 0 0 0 0 0 0 0 0 36 34 0 0 30 0 0 
		1 0 0 0 0 0 0 0 0 0 0 0 0 0 32 0 0 0 0 30 0 0 25 0 0 0 0 0 0 0 0 0 0 0 0 0 0 0 0 0 0 0 0 0 32 0 0 0 
		2 0 0 0 31 0 0 0 0 0 0 0 0 0 32 0 0 0 0 26 0 30 0 0 40 0 0 0 0 0 0 0 40 0 0 0 0 0 29 0 0 0 0 0 0 0 35 0 
		3 0 0 31 0 0 0 0 0 0 0 0 0 0 0 0 36 29 0 0 0 0 0 0 0 0 0 0 0 0 0 0 0 0 0 0 0 0 0 0 20 32 0 29 0 0 0 21 
		4 0 0 0 0 0 32 0 0 0 0 0 0 0 0 29 0 0 21 35 0 0 0 0 0 39 0 0 0 0 0 20 0 29 0 0 0 0 0 0 0 0 0 0 0 0 0 0 
		5 0 0 0 0 32 0 21 0 0 0 0 0 0 0 0 0 0 0 0 0 0 0 0 0 0 0 0 0 0 0 0 0 0 0 0 0 0 0 0 0 0 0 0 0 0 0 0 
		6 0 0 0 0 0 21 0 0 0 0 0 0 30 0 0 0 0 24 0 0 0 0 0 0 0 0 0 0 0 0 0 0 0 33 0 0 0 0 28 0 32 0 0 0 0 23 0 
		7 0 0 0 0 0 0 0 0 0 0 0 0 0 0 35 33 0 0 0 0 0 0 0 0 22 0 0 22 0 0 0 23 0 31 0 33 36 0 37 0 0 0 32 0 0 0 0 
		8 0 0 0 0 0 0 0 0 0 37 0 0 0 0 27 0 29 0 0 0 0 0 0 0 0 0 26 0 0 0 0 0 0 0 0 0 0 0 0 0 0 0 0 0 0 0 0 
		9 0 0 0 0 0 0 0 0 37 0 0 0 0 0 0 0 0 0 0 0 0 0 0 0 0 0 0 0 0 0 0 0 0 0 0 0 0 0 0 30 0 0 0 0 0 0 40 
		10 0 0 0 0 0 0 0 0 0 0 0 0 0 40 0 0 0 30 35 26 32 26 0 0 0 0 0 0 0 20 0 0 0 0 0 26 0 0 0 29 0 21 0 0 0 0 0 
		11 0 0 0 0 0 0 0 0 0 0 0 0 0 0 0 0 0 0 0 0 0 0 0 40 0 0 0 0 0 0 0 0 0 0 24 0 0 0 0 0 0 30 0 0 0 0 0 
		12 0 0 0 0 0 0 30 0 0 0 0 0 0 31 0 0 0 0 0 0 0 0 0 0 0 0 0 0 0 0 0 39 0 0 26 0 0 0 0 0 0 0 0 0 0 0 0 
		13 32 32 32 0 0 0 0 0 0 0 40 0 31 0 0 0 0 0 23 0 0 34 0 0 0 0 0 39 0 0 0 0 0 0 0 0 0 0 0 0 0 0 0 27 37 0 0 
		14 0 0 0 0 29 0 0 35 27 0 0 0 0 0 0 0 0 0 22 0 0 0 0 0 20 0 30 0 0 0 0 0 0 0 0 0 38 32 0 0 0 22 0 22 0 0 0 
		15 0 0 0 36 0 0 0 33 0 0 0 0 0 0 0 0 0 0 0 0 0 0 0 0 0 0 0 0 0 0 0 0 0 0 0 0 0 23 23 0 0 0 0 32 0 0 0 
		16 0 0 0 29 0 0 0 0 29 0 0 0 0 0 0 0 0 0 0 0 0 37 0 0 0 0 0 0 0 0 38 0 0 38 0 28 32 0 0 0 0 0 0 0 0 0 0 
		17 0 0 0 0 21 0 24 0 0 0 30 0 0 0 0 0 0 0 39 36 0 0 0 0 0 34 0 0 0 0 21 0 0 0 0 0 0 0 0 33 0 0 0 0 0 31 0 
		18 0 30 26 0 35 0 0 0 0 0 35 0 0 23 22 0 0 39 0 0 0 0 0 0 36 0 0 32 0 0 0 0 0 0 0 0 0 0 0 39 0 0 0 31 0 0 0 
		19 0 0 0 0 0 0 0 0 0 0 26 0 0 0 0 0 0 36 0 0 0 38 0 0 0 0 0 26 0 0 0 0 0 0 0 0 0 0 0 0 0 0 0 0 0 0 0 
		20 0 0 30 0 0 0 0 0 0 0 32 0 0 0 0 0 0 0 0 0 0 0 0 0 0 0 0 0 0 0 0 24 0 0 0 0 0 0 0 31 0 0 35 0 0 0 0 
		21 0 25 0 0 0 0 0 0 0 0 26 0 0 34 0 0 37 0 0 38 0 0 0 0 0 0 0 0 0 0 0 0 0 35 0 0 0 0 0 0 0 0 0 0 0 0 0 
		22 0 0 0 0 0 0 0 0 0 0 0 0 0 0 0 0 0 0 0 0 0 0 0 0 22 0 0 0 0 0 0 0 0 0 0 20 0 0 0 0 0 0 0 0 38 0 0 
		23 0 0 40 0 0 0 0 0 0 0 0 40 0 0 0 0 0 0 0 0 0 0 0 0 0 0 0 34 0 0 0 0 0 26 0 0 0 0 0 0 37 0 31 0 36 0 0 
		24 0 0 0 0 39 0 0 22 0 0 0 0 0 0 20 0 0 0 36 0 0 0 22 0 0 0 0 0 0 0 0 0 0 0 0 0 0 40 0 0 0 0 29 0 0 0 30 
		25 27 0 0 0 0 0 0 0 0 0 0 0 0 0 0 0 0 34 0 0 0 0 0 0 0 0 0 0 0 0 0 0 0 0 0 38 0 38 0 0 0 31 21 0 0 0 0 
		26 0 0 0 0 0 0 0 0 26 0 0 0 0 0 30 0 0 0 0 0 0 0 0 0 0 0 0 0 0 0 0 39 0 0 23 37 0 0 0 0 0 0 24 0 0 0 0 
		27 0 0 0 0 0 0 0 22 0 0 0 0 0 39 0 0 0 0 32 26 0 0 0 34 0 0 0 0 0 0 0 38 0 0 0 27 0 0 0 0 0 0 0 0 0 28 0 
		28 0 0 0 0 0 0 0 0 0 0 0 0 0 0 0 0 0 0 0 0 0 0 0 0 0 0 0 0 0 0 0 0 20 0 21 0 0 0 0 0 0 0 0 0 0 0 0 
		29 0 0 0 0 0 0 0 0 0 0 20 0 0 0 0 0 0 0 0 0 0 0 0 0 0 0 0 0 0 0 0 0 0 0 0 0 0 0 33 36 25 0 27 0 0 0 0 
		30 0 0 0 0 20 0 0 0 0 0 0 0 0 0 0 0 38 21 0 0 0 0 0 0 0 0 0 0 0 0 0 0 0 0 0 0 0 0 0 0 0 0 0 0 0 0 0 
		31 0 0 40 0 0 0 0 23 0 0 0 0 39 0 0 0 0 0 0 0 24 0 0 0 0 0 39 38 0 0 0 0 0 0 0 38 0 40 0 0 0 0 0 0 0 0 0 
		32 0 0 0 0 29 0 0 0 0 0 0 0 0 0 0 0 0 0 0 0 0 0 0 0 0 0 0 0 20 0 0 0 0 40 38 35 32 0 0 0 0 0 0 0 0 0 0 
		33 0 0 0 0 0 0 33 31 0 0 0 0 0 0 0 0 38 0 0 0 0 35 0 26 0 0 0 0 0 0 0 0 40 0 39 0 0 0 0 29 0 0 0 0 0 31 0 
		34 0 0 0 0 0 0 0 0 0 0 0 24 26 0 0 0 0 0 0 0 0 0 0 0 0 0 23 0 21 0 0 0 38 39 0 0 0 0 0 0 0 0 0 0 40 0 0 
		35 0 0 0 0 0 0 0 33 0 0 26 0 0 0 0 0 28 0 0 0 0 0 20 0 0 38 37 27 0 0 0 38 35 0 0 0 37 0 0 0 33 0 0 21 0 0 0 
		36 0 0 0 0 0 0 0 36 0 0 0 0 0 0 38 0 32 0 0 0 0 0 0 0 0 0 0 0 0 0 0 0 32 0 0 37 0 0 0 0 0 0 0 0 0 0 0 
		37 0 0 29 0 0 0 0 0 0 0 0 0 0 0 32 23 0 0 0 0 0 0 0 0 40 38 0 0 0 0 0 40 0 0 0 0 0 0 0 0 20 0 33 0 0 20 0 
		38 0 0 0 0 0 0 28 37 0 0 0 0 0 0 0 23 0 0 0 0 0 0 0 0 0 0 0 0 0 33 0 0 0 0 0 0 0 0 0 0 0 0 39 0 0 0 0 
		39 0 0 0 20 0 0 0 0 0 30 29 0 0 0 0 0 0 33 39 0 31 0 0 0 0 0 0 0 0 36 0 0 0 29 0 0 0 0 0 0 0 0 36 0 0 0 0 
		40 36 0 0 32 0 0 32 0 0 0 0 0 0 0 0 0 0 0 0 0 0 0 0 37 0 0 0 0 0 25 0 0 0 0 0 33 0 20 0 0 0 23 33 0 0 0 0 
		41 34 0 0 0 0 0 0 0 0 0 21 30 0 0 22 0 0 0 0 0 0 0 0 0 0 31 0 0 0 0 0 0 0 0 0 0 0 0 0 0 23 0 0 36 0 0 0 
		42 0 0 0 29 0 0 0 32 0 0 0 0 0 0 0 0 0 0 0 0 35 0 0 31 29 21 24 0 0 27 0 0 0 0 0 0 0 33 39 36 33 0 0 0 0 31 38 
		43 0 32 0 0 0 0 0 0 0 0 0 0 0 27 22 32 0 0 31 0 0 0 0 0 0 0 0 0 0 0 0 0 0 0 0 21 0 0 0 0 0 36 0 0 0 0 0 
		44 30 0 0 0 0 0 0 0 0 0 0 0 0 37 0 0 0 0 0 0 0 0 38 36 0 0 0 0 0 0 0 0 0 0 40 0 0 0 0 0 0 0 0 0 0 0 26 
		45 0 0 35 0 0 0 23 0 0 0 0 0 0 0 0 0 0 31 0 0 0 0 0 0 0 0 0 28 0 0 0 0 0 31 0 0 0 20 0 0 0 0 31 0 0 0 0 
		46 0 0 0 21 0 0 0 0 0 40 0 0 0 0 0 0 0 0 0 0 0 0 0 0 30 0 0 0 0 0 0 0 0 0 0 0 0 0 0 0 0 0 38 0 26 0 0 
;
